\ Model SLAB-2
\ LP format - for model browsing. Use MPS format to capture full model detail.
Minimize
  C
Subject To
 Station[1]: - C + 142 x[1,1] + 34 x[2,1] + 140 x[3,1] + 214 x[4,1]
   + 121 x[5,1] + 279 x[6,1] + 50 x[7,1] + 282 x[8,1] + 129 x[9,1]
   + 175 x[10,1] + 97 x[11,1] + 132 x[12,1] + 107 x[13,1] + 132 x[14,1]
   + 69 x[15,1] + 169 x[16,1] + 73 x[17,1] + 231 x[18,1] + 120 x[19,1]
   + 186 x[20,1] <= 0
 Station[2]: - C + 142 x[1,2] + 34 x[2,2] + 140 x[3,2] + 214 x[4,2]
   + 121 x[5,2] + 279 x[6,2] + 50 x[7,2] + 282 x[8,2] + 129 x[9,2]
   + 175 x[10,2] + 97 x[11,2] + 132 x[12,2] + 107 x[13,2] + 132 x[14,2]
   + 69 x[15,2] + 169 x[16,2] + 73 x[17,2] + 231 x[18,2] + 120 x[19,2]
   + 186 x[20,2] <= 0
 Station[3]: - C + 142 x[1,3] + 34 x[2,3] + 140 x[3,3] + 214 x[4,3]
   + 121 x[5,3] + 279 x[6,3] + 50 x[7,3] + 282 x[8,3] + 129 x[9,3]
   + 175 x[10,3] + 97 x[11,3] + 132 x[12,3] + 107 x[13,3] + 132 x[14,3]
   + 69 x[15,3] + 169 x[16,3] + 73 x[17,3] + 231 x[18,3] + 120 x[19,3]
   + 186 x[20,3] <= 0
 Task[1]: x[1,1] + x[1,2] + x[1,3] = 1
 Task[2]: x[2,1] + x[2,2] + x[2,3] = 1
 Task[3]: x[3,1] + x[3,2] + x[3,3] = 1
 Task[4]: x[4,1] + x[4,2] + x[4,3] = 1
 Task[5]: x[5,1] + x[5,2] + x[5,3] = 1
 Task[6]: x[6,1] + x[6,2] + x[6,3] = 1
 Task[7]: x[7,1] + x[7,2] + x[7,3] = 1
 Task[8]: x[8,1] + x[8,2] + x[8,3] = 1
 Task[9]: x[9,1] + x[9,2] + x[9,3] = 1
 Task[10]: x[10,1] + x[10,2] + x[10,3] = 1
 Task[11]: x[11,1] + x[11,2] + x[11,3] = 1
 Task[12]: x[12,1] + x[12,2] + x[12,3] = 1
 Task[13]: x[13,1] + x[13,2] + x[13,3] = 1
 Task[14]: x[14,1] + x[14,2] + x[14,3] = 1
 Task[15]: x[15,1] + x[15,2] + x[15,3] = 1
 Task[16]: x[16,1] + x[16,2] + x[16,3] = 1
 Task[17]: x[17,1] + x[17,2] + x[17,3] = 1
 Task[18]: x[18,1] + x[18,2] + x[18,3] = 1
 Task[19]: x[19,1] + x[19,2] + x[19,3] = 1
 Task[20]: x[20,1] + x[20,2] + x[20,3] = 1
 Precedence(1,6): x[1,1] + 2 x[1,2] + 3 x[1,3] - x[6,1] - 2 x[6,2]
   - 3 x[6,3] <= 0
 Precedence(2,7): x[2,1] + 2 x[2,2] + 3 x[2,3] - x[7,1] - 2 x[7,2]
   - 3 x[7,3] <= 0
 Precedence(4,8): x[4,1] + 2 x[4,2] + 3 x[4,3] - x[8,1] - 2 x[8,2]
   - 3 x[8,3] <= 0
 Precedence(5,9): x[5,1] + 2 x[5,2] + 3 x[5,3] - x[9,1] - 2 x[9,2]
   - 3 x[9,3] <= 0
 Precedence(6,10): x[6,1] + 2 x[6,2] + 3 x[6,3] - x[10,1] - 2 x[10,2]
   - 3 x[10,3] <= 0
 Precedence(7,11): x[7,1] + 2 x[7,2] + 3 x[7,3] - x[11,1] - 2 x[11,2]
   - 3 x[11,3] <= 0
 Precedence(8,12): x[8,1] + 2 x[8,2] + 3 x[8,3] - x[12,1] - 2 x[12,2]
   - 3 x[12,3] <= 0
 Precedence(10,13): x[10,1] + 2 x[10,2] + 3 x[10,3] - x[13,1] - 2 x[13,2]
   - 3 x[13,3] <= 0
 Precedence(11,13): x[11,1] + 2 x[11,2] + 3 x[11,3] - x[13,1] - 2 x[13,2]
   - 3 x[13,3] <= 0
 Precedence(12,14): x[12,1] + 2 x[12,2] + 3 x[12,3] - x[14,1] - 2 x[14,2]
   - 3 x[14,3] <= 0
 Precedence(12,15): x[12,1] + 2 x[12,2] + 3 x[12,3] - x[15,1] - 2 x[15,2]
   - 3 x[15,3] <= 0
 Precedence(13,16): x[13,1] + 2 x[13,2] + 3 x[13,3] - x[16,1] - 2 x[16,2]
   - 3 x[16,3] <= 0
 Precedence(13,17): x[13,1] + 2 x[13,2] + 3 x[13,3] - x[17,1] - 2 x[17,2]
   - 3 x[17,3] <= 0
 Precedence(13,18): x[13,1] + 2 x[13,2] + 3 x[13,3] - x[18,1] - 2 x[18,2]
   - 3 x[18,3] <= 0
 Precedence(14,20): x[14,1] + 2 x[14,2] + 3 x[14,3] - x[20,1] - 2 x[20,2]
   - 3 x[20,3] <= 0
 Precedence(15,19): x[15,1] + 2 x[15,2] + 3 x[15,3] - x[19,1] - 2 x[19,2]
   - 3 x[19,3] <= 0
Bounds
Binaries
 x[1,1] x[1,2] x[1,3] x[2,1] x[2,2] x[2,3] x[3,1] x[3,2] x[3,3] x[4,1]
 x[4,2] x[4,3] x[5,1] x[5,2] x[5,3] x[6,1] x[6,2] x[6,3] x[7,1] x[7,2]
 x[7,3] x[8,1] x[8,2] x[8,3] x[9,1] x[9,2] x[9,3] x[10,1] x[10,2] x[10,3]
 x[11,1] x[11,2] x[11,3] x[12,1] x[12,2] x[12,3] x[13,1] x[13,2] x[13,3]
 x[14,1] x[14,2] x[14,3] x[15,1] x[15,2] x[15,3] x[16,1] x[16,2] x[16,3]
 x[17,1] x[17,2] x[17,3] x[18,1] x[18,2] x[18,3] x[19,1] x[19,2] x[19,3]
 x[20,1] x[20,2] x[20,3]
End
